40 102
1 3 4 21 31 35
0 9 10 18 23 27 29
21
0 4 14 18 26 30 34 35
0 3 7 11 15 17 23
27 29 32
12 15 23 31 33
4 27 30 32 33
9 11 14 30 33 36
1 8 16 18 21
1 11 27 29
4 8 10 21 28 32 34 35
6 15 23 26 30 31 33
15 28 29 39
3 8 32
4 6 12 13 21 22 27 28
9 30 33
4 22
1 3 9 19 22 36
18 24 27 31
21 24 39
0 2 9 11 15 20 22 26 28
15 17 18 21 26 33 37
1 4 6 12 30 36 39
19 20

3 12 21 22 28 29 33
1 5 7 10 15 19 32 35
11 13 15 21 26 29 35
1 5 10 13 26 28 38
3 7 8 12 16 23
0 6 12 19 33
5 7 11 14 27 36 39
6 7 8 12 16 22 26 31
3 11 35
0 3 11 27 28 34
8 18 23 32
22
29
13 20 23 32
